32	0

0	2	2	3
5	2	5	6
4	2	4	6
5	1	5
1	2	7	8
9	2	7	8
4	1	9
3	1	9
2	1	10
10	2	11	12
5	1	13
6	1	13
10	2	14	15
7	2	16	17
5	2	16	17
5	2	18	20
5	2	18	20
4	1	19
6	2	21	22
10	2	21	22
7	1	23
5	1	23
2	2	24	25
7	2	26	27
8	1	26
5	2	28	29
9	2	28	29
8	1	30
4	2	30	31
1	1	32
8	1	32
0	0
